language ESSENCE' 1.0

letting jobs = 102
letting horizon = 833
letting resourcesRenew = 2
letting resourcesNonrenew = 2
letting resourceLimits = [45, 47, 479, 530]
letting successors = [[2, 3, 4, 5, 6, 7, 8, 9, 10, 12, 13, 14, 15, 18], [47, 41, 37, 35, 27, 26, 25, 24, 22, 19, 11], [68, 54, 51, 50, 47, 45, 43, 41, 37, 35, 33, 30, 25, 24, 23], [47, 41, 38, 37, 28, 26, 24, 16], [68, 54, 51, 49, 48, 47, 46, 43, 41, 40, 34, 33, 30, 24], [47, 45, 44, 41, 38, 37, 31, 20, 17], [50, 48, 47, 46, 45, 40, 38, 32, 30, 25, 21], [68, 58, 54, 50, 49, 47, 41, 40, 37, 35, 33, 30, 23], [68, 51, 50, 49, 47, 46, 41, 40, 35, 33, 32, 30, 24], [62, 51, 50, 49, 47, 46, 45, 43, 40, 36, 33, 32, 29, 24], [72, 68, 63, 58, 54, 50, 48, 46, 44, 43, 33, 30], [72, 63, 62, 59, 58, 54, 52, 50, 48, 47, 46, 42, 41, 39], [72, 65, 62, 60, 54, 52, 51, 50, 49, 47, 44, 33], [72, 63, 62, 60, 59, 58, 51, 50, 47, 43, 38, 33], [65, 63, 58, 54, 51, 47, 45, 44, 43, 40, 33], [72, 68, 65, 63, 62, 52, 51, 48, 46, 45, 44, 42, 39], [62, 59, 58, 54, 52, 51, 50, 49, 39, 33], [72, 63, 54, 50, 46, 37, 33, 32], [72, 68, 67, 65, 59, 52, 51, 50, 48, 42, 39], [72, 68, 67, 63, 59, 51, 30], [78, 72, 65, 63, 59, 58, 54, 51, 42, 39], [67, 66, 65, 64, 63, 60, 58, 55, 53, 52, 44, 42], [72, 67, 59, 52, 48, 46, 42, 39], [72, 67, 66, 64, 60, 58, 55, 53, 52, 44, 42], [72, 67, 66, 65, 64, 61, 56, 53, 52, 49, 44], [78, 66, 65, 63, 59, 55, 52, 51, 50, 43, 42], [84, 78, 72, 66, 59, 53, 50, 42, 40], [72, 65, 60, 59, 33], [78, 66, 65, 64, 59, 58, 57, 55, 52, 42], [78, 77, 65, 62, 61, 56, 52, 39], [84, 76, 67, 66, 64, 62, 60, 55, 52, 50, 42], [84, 78, 71, 67, 66, 65, 60, 57, 55, 42], [84, 78, 71, 67, 66, 64, 53, 42], [84, 78, 69, 66, 62, 60, 59, 57, 56, 55, 50], [84, 67, 55, 53, 52, 42], [100, 66, 55, 44, 42], [83, 78, 73, 70, 67, 66, 61, 59, 57, 55, 52], [101, 100, 98, 94, 84, 83, 81, 78, 76, 75, 73, 70, 67, 65, 55, 52], [81, 71, 70, 69, 66, 64, 60, 55, 53], [101, 94, 83, 77, 70, 60, 57, 55, 52], [99, 97, 94, 83, 81, 78, 75, 73, 69, 67, 60, 55], [99, 82, 79, 77, 75, 70, 69, 61, 56], [97, 94, 83, 82, 81, 75, 73, 69, 67, 57], [98, 84, 83, 82, 81, 79, 78, 74, 71, 70, 69, 59], [100, 99, 97, 84, 78, 76, 75, 70, 69, 64, 61], [100, 99, 98, 93, 84, 83, 81, 80, 77, 73, 71, 69, 66], [99, 82, 78, 77, 75, 74, 71, 69, 64, 61], [98, 97, 94, 83, 81, 80, 78, 76, 71, 55], [99, 80, 75, 69, 63, 55], [101, 96, 94, 89, 83, 81, 80, 79, 77, 75, 74, 71], [94, 88, 84, 82, 80, 77, 76, 75, 74, 69], [99, 97, 90, 87, 82, 80, 79, 74, 71, 69], [97, 94, 90, 80, 75, 57], [100, 95, 92, 89, 87, 81, 80, 79, 76, 74], [96, 95, 92, 91, 90, 89, 87, 82, 79, 74], [98, 97, 95, 93, 90, 89, 87, 83, 73], [100, 99, 98, 89, 87, 86, 85, 79, 76], [100, 98, 93, 91, 89, 88, 87, 86, 85, 84], [97, 95, 94, 88, 87, 86, 76, 75], [100, 98, 96, 93, 92, 91, 89, 88, 86, 85], [101, 94, 92, 91, 89, 87, 81, 80], [94, 92, 90, 89, 88, 87, 80, 74], [101, 97, 95, 94, 93, 81, 74], [95, 94, 92, 90, 89, 87, 85, 79], [92, 89, 88, 87, 86, 82], [94, 89, 79, 74], [93, 91, 86, 77], [91, 90, 74], [96, 95, 92, 89], [91, 88, 87, 86], [92, 91, 85], [87, 80], [74], [86, 85], [93, 85], [93, 91], [92, 87], [90, 85], [88], [86], [90], [85], [88], [90], [102], [102], [102], [102], [102], [102], [102], [102], [102], [102], [102], [102], [102], [102], [102], [102], [102], []]
letting durations = [[0], [2, 5, 9], [2, 3, 4], [1, 4, 5], [4, 5, 10], [6, 6, 7], [2, 5, 10], [1, 6, 8], [3, 7, 10], [4, 5, 7], [7, 8, 9], [3, 5, 6], [2, 3, 9], [2, 3, 7], [6, 7, 9], [4, 5, 7], [3, 7, 10], [5, 6, 8], [4, 5, 9], [1, 2, 5], [4, 5, 10], [1, 5, 7], [2, 5, 10], [6, 9, 10], [1, 3, 7], [4, 5, 9], [1, 2, 7], [6, 9, 10], [4, 6, 7], [6, 7, 10], [3, 4, 10], [1, 5, 10], [7, 9, 10], [2, 4, 5], [1, 2, 10], [3, 7, 10], [3, 9, 10], [2, 5, 6], [1, 2, 5], [3, 8, 10], [1, 7, 10], [1, 4, 8], [2, 6, 8], [3, 6, 9], [7, 8, 9], [1, 5, 9], [1, 8, 9], [1, 3, 7], [4, 8, 9], [3, 6, 7], [3, 5, 10], [1, 5, 7], [4, 5, 7], [1, 2, 8], [2, 8, 9], [3, 4, 10], [1, 5, 9], [1, 9, 10], [1, 7, 8], [1, 2, 8], [1, 7, 9], [4, 5, 9], [3, 8, 10], [1, 5, 8], [1, 7, 10], [5, 7, 9], [3, 9, 10], [1, 2, 8], [6, 7, 8], [2, 3, 9], [2, 5, 10], [5, 9, 10], [3, 5, 7], [5, 6, 8], [3, 4, 8], [2, 5, 9], [4, 8, 9], [2, 4, 7], [2, 5, 8], [1, 3, 4], [2, 7, 10], [1, 3, 4], [1, 5, 8], [6, 7, 10], [1, 3, 4], [2, 5, 6], [3, 4, 5], [1, 7, 8], [3, 7, 10], [1, 5, 7], [6, 7, 10], [1, 2, 7], [2, 4, 10], [6, 7, 9], [4, 6, 7], [7, 8, 9], [6, 7, 8], [1, 5, 9], [5, 6, 10], [3, 9, 10], [1, 8, 9], [0]]
letting resourceUsage = [[[0, 0, 0, 0]], [[2, 3, 8, 8], [2, 3, 7, 7], [2, 2, 3, 5]], [[4, 2, 3, 8], [2, 1, 3, 6], [2, 1, 2, 5]], [[4, 3, 3, 6], [4, 2, 3, 4], [4, 2, 3, 3]], [[1, 3, 6, 8], [1, 2, 6, 5], [1, 2, 6, 4]], [[4, 5, 8, 3], [3, 3, 7, 4], [3, 3, 7, 3]], [[2, 3, 9, 4], [1, 2, 8, 3], [1, 1, 8, 2]], [[4, 2, 3, 9], [4, 1, 3, 5], [4, 1, 2, 2]], [[3, 4, 6, 8], [3, 4, 6, 5], [1, 4, 6, 2]], [[3, 3, 8, 3], [1, 3, 7, 3], [1, 3, 7, 2]], [[3, 3, 6, 9], [3, 3, 5, 9], [3, 2, 5, 8]], [[4, 4, 4, 8], [3, 3, 2, 6], [3, 2, 2, 3]], [[3, 2, 2, 8], [3, 1, 2, 7], [3, 1, 2, 6]], [[5, 3, 7, 9], [3, 2, 7, 8], [2, 1, 7, 8]], [[4, 5, 6, 8], [4, 3, 5, 7], [3, 3, 5, 5]], [[5, 3, 8, 9], [5, 2, 7, 9], [5, 1, 5, 9]], [[3, 3, 10, 6], [1, 3, 9, 6], [1, 3, 8, 5]], [[5, 4, 7, 5], [3, 3, 3, 4], [3, 1, 2, 4]], [[5, 4, 5, 3], [4, 4, 4, 2], [4, 4, 4, 1]], [[2, 3, 4, 7], [2, 1, 2, 5], [1, 1, 2, 5]], [[2, 1, 9, 7], [2, 1, 8, 4], [2, 1, 7, 3]], [[4, 5, 5, 6], [4, 4, 3, 6], [4, 4, 3, 5]], [[4, 2, 4, 7], [4, 1, 3, 6], [4, 1, 2, 6]], [[4, 4, 9, 6], [3, 4, 8, 5], [1, 3, 7, 2]], [[2, 4, 10, 10], [2, 4, 8, 10], [2, 2, 8, 10]], [[3, 4, 8, 9], [2, 4, 5, 5], [2, 4, 3, 5]], [[5, 4, 1, 10], [4, 3, 1, 9], [4, 1, 1, 9]], [[2, 4, 8, 8], [2, 4, 6, 6], [2, 3, 6, 6]], [[3, 5, 5, 7], [2, 4, 4, 7], [1, 4, 3, 7]], [[3, 4, 8, 6], [2, 4, 7, 5], [1, 4, 6, 4]], [[3, 4, 7, 10], [2, 3, 7, 8], [2, 3, 6, 8]], [[4, 5, 6, 7], [4, 3, 6, 5], [4, 3, 6, 2]], [[5, 3, 3, 9], [4, 3, 2, 7], [4, 3, 2, 4]], [[3, 4, 6, 6], [2, 3, 6, 6], [1, 2, 4, 6]], [[3, 2, 3, 8], [3, 1, 3, 8], [2, 1, 3, 6]], [[4, 3, 9, 7], [3, 2, 8, 6], [1, 2, 8, 6]], [[1, 1, 5, 9], [1, 1, 4, 8], [1, 1, 4, 7]], [[3, 2, 9, 3], [3, 1, 7, 2], [2, 1, 7, 2]], [[4, 2, 8, 7], [4, 1, 6, 7], [3, 1, 3, 7]], [[1, 5, 5, 8], [1, 3, 3, 8], [1, 3, 3, 7]], [[4, 2, 5, 10], [3, 1, 3, 10], [1, 1, 2, 10]], [[5, 4, 9, 4], [4, 3, 5, 4], [3, 3, 3, 3]], [[4, 4, 10, 10], [2, 4, 9, 6], [2, 4, 9, 5]], [[3, 4, 9, 10], [2, 3, 9, 7], [2, 2, 9, 7]], [[5, 5, 6, 9], [4, 4, 6, 8], [3, 4, 6, 8]], [[1, 3, 9, 5], [1, 2, 5, 4], [1, 2, 1, 3]], [[5, 3, 4, 8], [5, 2, 4, 5], [5, 2, 4, 1]], [[4, 4, 5, 8], [3, 4, 4, 7], [3, 4, 3, 4]], [[3, 4, 9, 3], [2, 3, 7, 2], [1, 3, 7, 2]], [[4, 2, 9, 9], [2, 1, 7, 5], [2, 1, 4, 3]], [[5, 4, 5, 8], [4, 3, 3, 8], [2, 2, 3, 6]], [[3, 5, 3, 9], [3, 4, 3, 8], [2, 4, 3, 7]], [[2, 3, 8, 6], [2, 2, 7, 3], [2, 2, 6, 1]], [[5, 5, 4, 6], [3, 5, 2, 6], [3, 5, 1, 6]], [[4, 5, 4, 5], [3, 4, 3, 4], [2, 4, 2, 4]], [[3, 2, 6, 6], [3, 1, 5, 5], [2, 1, 4, 5]], [[5, 4, 2, 5], [4, 2, 2, 3], [3, 2, 2, 3]], [[5, 4, 8, 9], [4, 2, 6, 9], [3, 1, 6, 9]], [[3, 3, 9, 5], [3, 2, 7, 4], [1, 2, 4, 2]], [[4, 4, 5, 9], [3, 3, 4, 8], [1, 3, 4, 6]], [[5, 4, 9, 4], [4, 3, 9, 4], [4, 3, 9, 3]], [[2, 3, 4, 9], [1, 3, 4, 8], [1, 1, 4, 8]], [[4, 2, 4, 3], [2, 2, 4, 1], [2, 2, 3, 1]], [[5, 4, 4, 7], [3, 4, 3, 5], [1, 3, 2, 5]], [[3, 2, 8, 5], [2, 2, 8, 4], [2, 2, 8, 3]], [[5, 5, 8, 4], [3, 5, 6, 4], [3, 5, 6, 3]], [[5, 5, 4, 8], [3, 4, 4, 7], [3, 3, 4, 7]], [[2, 3, 10, 7], [1, 2, 9, 5], [1, 2, 8, 5]], [[2, 3, 2, 8], [1, 3, 2, 3], [1, 3, 2, 1]], [[5, 5, 3, 3], [5, 3, 2, 3], [5, 3, 2, 2]], [[5, 3, 3, 5], [3, 3, 3, 3], [2, 2, 1, 3]], [[5, 3, 6, 8], [5, 3, 6, 6], [5, 3, 3, 6]], [[4, 4, 2, 9], [4, 4, 2, 5], [4, 4, 2, 4]], [[5, 4, 6, 10], [3, 4, 6, 8], [3, 4, 4, 8]], [[2, 5, 3, 10], [1, 3, 3, 8], [1, 2, 3, 7]], [[1, 2, 4, 8], [1, 2, 3, 6], [1, 2, 3, 5]], [[4, 4, 9, 3], [3, 3, 9, 3], [2, 3, 9, 3]], [[3, 3, 9, 10], [2, 2, 5, 8], [2, 2, 5, 5]], [[4, 3, 8, 9], [3, 3, 6, 8], [3, 1, 2, 8]], [[3, 1, 3, 4], [2, 1, 2, 3], [2, 1, 2, 2]], [[4, 3, 6, 5], [4, 3, 2, 4], [3, 2, 2, 4]], [[2, 5, 3, 8], [1, 2, 2, 7], [1, 2, 1, 7]], [[2, 4, 6, 7], [2, 4, 6, 5], [1, 4, 4, 3]], [[4, 3, 9, 6], [2, 2, 7, 6], [1, 1, 4, 4]], [[1, 5, 10, 8], [1, 2, 7, 5], [1, 2, 2, 1]], [[1, 5, 10, 6], [1, 5, 9, 6], [1, 5, 9, 5]], [[4, 4, 8, 8], [2, 3, 8, 7], [2, 3, 7, 6]], [[5, 4, 7, 3], [4, 2, 4, 2], [4, 2, 2, 2]], [[2, 5, 6, 8], [1, 5, 4, 7], [1, 5, 3, 6]], [[2, 3, 9, 9], [1, 2, 7, 7], [1, 1, 7, 4]], [[4, 4, 8, 6], [2, 2, 5, 4], [2, 2, 2, 3]], [[2, 4, 7, 5], [2, 3, 5, 4], [1, 1, 5, 3]], [[3, 5, 8, 5], [3, 4, 6, 4], [1, 3, 6, 4]], [[5, 3, 7, 7], [4, 3, 4, 6], [2, 3, 2, 4]], [[3, 4, 9, 2], [3, 3, 8, 1], [3, 2, 8, 1]], [[4, 4, 7, 9], [2, 2, 7, 9], [2, 1, 3, 9]], [[2, 3, 6, 8], [2, 2, 6, 8], [1, 2, 6, 8]], [[5, 1, 4, 8], [4, 1, 4, 6], [3, 1, 2, 4]], [[4, 3, 6, 6], [2, 3, 4, 6], [2, 3, 2, 6]], [[5, 4, 7, 6], [4, 3, 7, 6], [4, 2, 7, 5]], [[1, 4, 4, 5], [1, 3, 4, 6], [1, 3, 4, 5]], [[0, 0, 0, 0]]]
